\LP file generated from the problem `Slots selection' by the
\Xpress Builder Component Library Xpress BCL

Minimize
obj: 532 DR_(32) + 532 DR_(33) + 592 DR_(34) + 592 DR_(35) + 598 DR_(36) + 592 DR_(37) + 
562 DR_(38) + 578 DR_(39) + 688 DR_(40) + 532 DR_(41) + 532 DR_(42) + 532 DR_(43) + 
592 DR_(44) + 532 DR_(45) + 1041 DR_(46) + 1026 DR_(47) + 501 DR_(48) + 501 DR_(49) + 
501 DR_(50) + 501 DR_(51) + 501 DR_(52) + 501 DR_(53) + 501 DR_(54) + 501 DR_(55) + 
501 DR_(56) + 501 DR_(57) + 501 DR_(58) + 501 DR_(59) + 501 DR_(60) + 501 DR_(61) + 
501 DR_(62) + 501 DR_(63) + 501 DR_(64) + 501 DR_(65) + 501 DR_(66) + 501 DR_(67) + 
501 DR_(68) + 501 DR_(69) + 501 DR_(70) + 1144 DR_(0) + 1200 DR_(1) + 1262 DR_(2) + 
1265 DR_(3) + 901 DR_(4) + 899 DR_(5) + 1201 DR_(6) + 899 DR_(7) + 1142 DR_(8) + 
1203 DR_(9) + 901 DR_(10) + 903 DR_(11) + 1202 DR_(12) + 1200 DR_(13) + 1260 DR_(14) + 
1201 DR_(15) + 1140 DR_(16) + 263 DR_(17) + 1260 DR_(18) + 901 DR_(19) + 1200 DR_(20) + 
900 DR_(21) + 1262 DR_(22) + 262 DR_(23) + 1200 DR_(24) + 1072 DR_(25) + 1102 DR_(26) + 
532 DR_(27) + 562 DR_(28) + 592 DR_(29) + 592 DR_(30) + 718 DR_(31) + 532 DR_(71) + 
532 DR_(72) + 532 DR_(73) + 532 DR_(74) + 532 DR_(75) + 532 DR_(76) + 592 DR_(77) + 
592 DR_(78) + 532 DR_(79) + 532 DR_(80) + 1041 DR_(81) + 1041 DR_(82) + 1026 DR_(83) + 
1026 DR_(84) + 1041 DR_(85) + 1041 DR_(86) + 532 DR_(87) + 532 DR_(88) + 532 DR_(89) + 
532 DR_(90) + 532 DR_(91) + 532 DR_(92) + 532 DR_(93) + 532 DR_(94) + 1026 DR_(95) + 
1026 DR_(96) + 592 DR_(97) + 592 DR_(98) + 680 DR_(99) + 710 DR_(100) + 1260 DR_(101) + 
1320 DR_(102) + 1232 DR_(103) + 1170 DR_(104) + 773 DR_(105) + 1200 DR_(106) + 
501 DR_(107) + 501 DR_(108) + 501 DR_(109) + 501 DR_(110) + 501 DR_(111) + 1026 DR_(112) + 
501 DR_(113) + 592 DR_(114) + 562 DR_(115) + 622 DR_(116) + 532 DR_(117) + 562 DR_(118) + 
592 DR_(119) + 562 DR_(120) + 592 DR_(121) + 501 DR_(122) + 501 DR_(123) + 501 DR_(124)

Subject To
subJob_167: DR_(101) = 1
subJob_166: DR_(102) = 1
subJob_165: DR_(23) + DR_(100) = 1
subJob_164: DR_(22) + DR_(103) = 1
subJob_163: DR_(13) + DR_(103) = 1
subJob_162: DR_(102) = 1
subJob_161: DR_(24) + DR_(104) = 1
subJob_160: DR_(101) = 1
subJob_159: DR_(13) + DR_(103) = 1
subJob_158: DR_(10) + DR_(103) = 1
subJob_157: DR_(16) + DR_(101) = 1
subJob_156: DR_(12) + DR_(102) = 1
subJob_155: DR_(101) = 1
subJob_154: DR_(23) + DR_(100) = 1
subJob_153: DR_(100) = 1
subJob_152: DR_(18) + DR_(102) = 1
subJob_151: DR_(15) + DR_(101) = 1
subJob_150: DR_(100) = 1
subJob_149: DR_(108) = 1
subJob_148: DR_(100) = 1
subJob_147: DR_(101) = 1
subJob_146: DR_(47) + DR_(69) + DR_(26) + DR_(83) + DR_(84) + DR_(95) + DR_(96) + 
DR_(112) = 1
subJob_145: DR_(101) = 1
subJob_144: DR_(65) + DR_(25) + DR_(106) = 1
subJob_143: DR_(101) = 1
subJob_142: DR_(47) + DR_(26) + DR_(83) + DR_(84) + DR_(95) + DR_(96) + DR_(112) = 1
subJob_141: DR_(101) = 1
subJob_140: DR_(99) = 1
subJob_139: DR_(45) + DR_(64) + DR_(79) + DR_(80) + DR_(87) + DR_(88) + DR_(103) = 1
subJob_138: DR_(99) = 1
subJob_137: DR_(100) = 1
subJob_136: DR_(9) + DR_(99) = 1
subJob_135: DR_(101) = 1
subJob_134: DR_(99) = 1
subJob_133: DR_(106) = 1
subJob_132: DR_(100) = 1
subJob_131: DR_(106) = 1
subJob_130: DR_(106) = 1
subJob_129: DR_(106) = 1
subJob_128: DR_(100) = 1
subJob_127: DR_(32) + DR_(33) + DR_(34) + DR_(35) + DR_(36) + DR_(37) + DR_(38) + 
DR_(39) + DR_(40) + DR_(27) + DR_(28) + DR_(29) + DR_(30) + DR_(31) + DR_(106) = 1
subJob_126: DR_(32) + DR_(33) + DR_(34) + DR_(35) + DR_(36) + DR_(37) + DR_(38) + 
DR_(39) + DR_(40) + DR_(27) + DR_(28) + DR_(29) + DR_(30) + DR_(31) + DR_(106) = 1
subJob_125: DR_(32) + DR_(33) + DR_(34) + DR_(35) + DR_(36) + DR_(37) + DR_(38) + 
DR_(39) + DR_(40) + DR_(27) + DR_(28) + DR_(29) + DR_(30) + DR_(31) + DR_(106) = 1
subJob_124: DR_(32) + DR_(33) + DR_(34) + DR_(35) + DR_(36) + DR_(37) + DR_(38) + 
DR_(39) + DR_(40) + DR_(27) + DR_(28) + DR_(29) + DR_(30) + DR_(31) + DR_(106) = 1
subJob_123: DR_(44) + DR_(70) + DR_(77) + DR_(78) + DR_(97) + DR_(98) + DR_(106) = 1
subJob_122: DR_(19) + DR_(102) = 1
subJob_121: DR_(43) + DR_(68) + DR_(75) + DR_(76) + DR_(93) + DR_(94) + DR_(106) = 1
subJob_120: DR_(16) + DR_(101) = 1
subJob_119: DR_(34) + DR_(56) + DR_(113) = 1
subJob_118: DR_(14) + DR_(101) = 1
subJob_117: DR_(107) = 1
subJob_116: DR_(42) + DR_(67) + DR_(73) + DR_(74) + DR_(91) + DR_(92) + DR_(104) = 1
subJob_115: DR_(12) + DR_(102) = 1
subJob_114: DR_(105) = 1
subJob_113: DR_(102) = 1
subJob_112: DR_(41) + DR_(66) + DR_(71) + DR_(72) + DR_(89) + DR_(90) + DR_(124) = 1
subJob_111: DR_(44) + DR_(77) + DR_(78) + DR_(97) + DR_(98) + DR_(106) = 1
subJob_110: DR_(43) + DR_(30) + DR_(75) + DR_(76) + DR_(93) + DR_(94) + DR_(106) = 1
subJob_109: DR_(0) + DR_(1) + DR_(2) + DR_(3) + DR_(6) + DR_(8) + DR_(9) + DR_(12) + 
DR_(13) + DR_(14) + DR_(15) + DR_(16) + DR_(17) + DR_(18) + DR_(20) + DR_(22) + 
DR_(23) + DR_(24) + DR_(99) = 1
subJob_108: DR_(34) + DR_(25) + DR_(26) + DR_(105) = 1
subJob_107: DR_(0) + DR_(1) + DR_(2) + DR_(3) + DR_(6) + DR_(8) + DR_(9) + DR_(12) + 
DR_(13) + DR_(14) + DR_(15) + DR_(16) + DR_(17) + DR_(18) + DR_(20) + DR_(22) + 
DR_(23) + DR_(24) + DR_(100) = 1
subJob_106: DR_(34) + DR_(37) + DR_(38) + DR_(42) + DR_(31) + DR_(73) + DR_(74) + 
DR_(91) + DR_(92) + DR_(104) = 1
subJob_105: DR_(0) + DR_(1) + DR_(2) + DR_(3) + DR_(6) + DR_(8) + DR_(9) + DR_(12) + 
DR_(13) + DR_(14) + DR_(15) + DR_(16) + DR_(17) + DR_(18) + DR_(20) + DR_(22) + 
DR_(23) + DR_(24) + DR_(101) = 1
subJob_104: DR_(32) + DR_(34) + DR_(36) + DR_(37) + DR_(38) + DR_(41) + DR_(28) + 
DR_(29) + DR_(31) + DR_(71) + DR_(72) + DR_(89) + DR_(90) + DR_(104) = 1
subJob_103: DR_(8) + DR_(99) = 1
subJob_102: DR_(40) + DR_(61) + DR_(109) = 1
subJob_101: DR_(39) + DR_(53) + DR_(110) = 1
subJob_100: DR_(55) + DR_(30) + DR_(121) = 1
subJob_99: DR_(36) + DR_(59) + DR_(122) = 1
subJob_98: DR_(99) = 1
subJob_97: DR_(54) + DR_(29) + DR_(119) = 1
subJob_96: DR_(51) + DR_(28) + DR_(120) = 1
subJob_95: DR_(0) + DR_(1) + DR_(2) + DR_(3) + DR_(4) + DR_(6) + DR_(8) + DR_(9) + 
DR_(12) + DR_(13) + DR_(14) + DR_(15) + DR_(16) + DR_(17) + DR_(18) + DR_(20) + 
DR_(22) + DR_(23) + DR_(24) + DR_(104) = 1
subJob_94: DR_(99) = 1
subJob_93: DR_(48) + DR_(27) + DR_(117) = 1
subJob_92: DR_(3) + DR_(100) = 1
subJob_91: DR_(118) = 1
subJob_90: DR_(60) + DR_(4) + DR_(5) + DR_(7) + DR_(10) + DR_(11) + DR_(19) + 
DR_(21) + DR_(116) = 1
subJob_89: DR_(46) + DR_(63) + DR_(0) + DR_(1) + DR_(2) + DR_(3) + DR_(6) + 
DR_(8) + DR_(9) + DR_(12) + DR_(13) + DR_(14) + DR_(15) + DR_(16) + DR_(18) + 
DR_(20) + DR_(22) + DR_(24) + DR_(81) + DR_(82) + DR_(85) + DR_(86) + DR_(101) = 1
subJob_88: DR_(101) = 1
subJob_87: DR_(30) + DR_(121) = 1
subJob_86: DR_(102) = 1
subJob_85: DR_(4) + DR_(5) + DR_(7) + DR_(10) + DR_(11) + DR_(19) + DR_(21) + 
DR_(29) + DR_(119) = 1
subJob_84: DR_(4) + DR_(5) + DR_(7) + DR_(10) + DR_(11) + DR_(19) + DR_(21) + 
DR_(28) + DR_(120) = 1
subJob_83: DR_(4) + DR_(5) + DR_(7) + DR_(10) + DR_(11) + DR_(19) + DR_(21) + 
DR_(27) + DR_(117) = 1
subJob_82: DR_(4) + DR_(5) + DR_(7) + DR_(10) + DR_(11) + DR_(14) + DR_(15) + 
DR_(17) + DR_(18) + DR_(19) + DR_(21) + DR_(22) + DR_(23) + DR_(25) + DR_(26) + 
DR_(118) = 1
subJob_81: DR_(4) + DR_(5) + DR_(7) + DR_(10) + DR_(11) + DR_(19) + DR_(21) + 
DR_(25) + DR_(26) + DR_(116) = 1
subJob_80: DR_(0) + DR_(1) + DR_(2) + DR_(3) + DR_(6) + DR_(8) + DR_(9) + DR_(12) + 
DR_(13) + DR_(14) + DR_(15) + DR_(16) + DR_(17) + DR_(18) + DR_(20) + DR_(22) + 
DR_(23) + DR_(24) + DR_(100) = 1
subJob_79: DR_(22) + DR_(103) = 1
subJob_78: DR_(38) + DR_(52) + DR_(115) = 1
subJob_77: DR_(37) + DR_(58) + DR_(114) = 1
subJob_76: DR_(21) + DR_(101) = 1
subJob_75: DR_(40) + DR_(102) = 1
subJob_74: DR_(35) + DR_(57) + DR_(123) = 1
subJob_73: DR_(39) + DR_(101) = 1
subJob_72: DR_(46) + DR_(25) + DR_(81) + DR_(82) + DR_(85) + DR_(86) + DR_(106) = 1
subJob_71: DR_(17) + DR_(99) = 1
subJob_70: DR_(2) + DR_(3) + DR_(14) + DR_(15) + DR_(17) + DR_(18) + DR_(20) + 
DR_(22) + DR_(23) + DR_(25) + DR_(26) + DR_(99) = 1
subJob_69: DR_(33) + DR_(50) + DR_(104) = 1
subJob_68: DR_(15) + DR_(101) = 1
subJob_67: DR_(2) + DR_(3) + DR_(14) + DR_(15) + DR_(17) + DR_(18) + DR_(20) + 
DR_(22) + DR_(23) + DR_(25) + DR_(26) + DR_(101) = 1
subJob_66: DR_(32) + DR_(49) + DR_(111) = 1
subJob_65: DR_(2) + DR_(3) + DR_(14) + DR_(15) + DR_(17) + DR_(18) + DR_(20) + 
DR_(22) + DR_(23) + DR_(25) + DR_(26) + DR_(99) = 1
subJob_64: DR_(62) + DR_(31) + DR_(103) = 1
subJob_63: DR_(2) + DR_(3) + DR_(14) + DR_(15) + DR_(17) + DR_(18) + DR_(20) + 
DR_(22) + DR_(23) + DR_(26) + DR_(100) = 1
subJob_62: DR_(45) + DR_(79) + DR_(80) + DR_(87) + DR_(88) + DR_(103) = 1
subJob_61: DR_(38) + DR_(115) = 1
subJob_60: DR_(102) = 1
subJob_59: DR_(37) + DR_(25) + DR_(26) + DR_(114) = 1
subJob_58: DR_(100) = 1
subJob_57: DR_(36) + DR_(25) + DR_(26) + DR_(105) = 1
subJob_56: DR_(35) + DR_(105) = 1
subJob_55: DR_(10) + DR_(103) = 1
subJob_54: DR_(2) + DR_(3) + DR_(14) + DR_(15) + DR_(17) + DR_(18) + DR_(20) + 
DR_(22) + DR_(23) + DR_(25) + DR_(101) = 1
subJob_53: DR_(100) = 1
subJob_52: DR_(33) + DR_(104) = 1
subJob_51: DR_(32) + DR_(102) = 1
subJob_50: DR_(31) + DR_(103) = 1
subJob_49: DR_(7) + DR_(105) = 1
subJob_48: DR_(6) + DR_(105) = 1
subJob_47: DR_(5) + DR_(99) = 1
subJob_46: DR_(2) + DR_(17) + DR_(23) + DR_(99) = 1
subJob_45: DR_(100) = 1
subJob_44: DR_(101) = 1
subJob_43: DR_(99) = 1
subJob_42: DR_(24) + DR_(104) = 1
subJob_41: DR_(20) + DR_(100) = 1
subJob_40: DR_(18) + DR_(102) = 1
subJob_39: DR_(102) = 1
subJob_38: DR_(19) + DR_(102) = 1
subJob_37: DR_(11) + DR_(100) = 1
subJob_36: DR_(99) = 1
subJob_35: DR_(21) + DR_(101) = 1
subJob_34: DR_(11) + DR_(100) = 1
subJob_33: DR_(101) = 1
subJob_32: DR_(17) + DR_(99) = 1
subJob_31: DR_(14) + DR_(101) = 1
subJob_30: DR_(20) + DR_(100) = 1
subJob_29: DR_(102) = 1
subJob_28: DR_(102) = 1
subJob_27: DR_(101) = 1
subJob_26: DR_(99) = 1
subJob_25: DR_(99) = 1
subJob_24: DR_(99) = 1
subJob_23: DR_(3) + DR_(100) = 1
subJob_22: DR_(9) + DR_(99) = 1
subJob_21: DR_(0) + DR_(1) + DR_(2) + DR_(3) + DR_(6) + DR_(9) + DR_(12) + DR_(13) + 
DR_(14) + DR_(15) + DR_(17) + DR_(18) + DR_(20) + DR_(22) + DR_(23) + DR_(24) + 
DR_(100) = 1
subJob_20: DR_(102) = 1
subJob_19: DR_(5) + DR_(99) = 1
subJob_18: DR_(99) = 1
subJob_17: DR_(2) + DR_(17) + DR_(23) + DR_(99) = 1
subJob_16: DR_(101) = 1
subJob_15: DR_(8) + DR_(99) = 1
subJob_14: DR_(101) = 1
subJob_13: DR_(1) + DR_(2) + DR_(3) + DR_(14) + DR_(17) + DR_(18) + DR_(22) + 
DR_(23) + DR_(106) = 1
subJob_12: DR_(7) + DR_(105) = 1
subJob_11: DR_(1) + DR_(2) + DR_(3) + DR_(14) + DR_(17) + DR_(18) + DR_(22) + 
DR_(23) + DR_(106) = 1
subJob_10: DR_(6) + DR_(105) = 1
subJob_9: DR_(0) + DR_(1) + DR_(2) + DR_(3) + DR_(4) + DR_(6) + DR_(8) + DR_(9) + 
DR_(12) + DR_(13) + DR_(14) + DR_(15) + DR_(16) + DR_(17) + DR_(18) + DR_(20) + 
DR_(22) + DR_(23) + DR_(24) + DR_(104) = 1
subJob_8: DR_(0) + DR_(1) + DR_(2) + DR_(3) + DR_(6) + DR_(9) + DR_(12) + DR_(13) + 
DR_(14) + DR_(15) + DR_(17) + DR_(18) + DR_(20) + DR_(22) + DR_(23) + DR_(24) + 
DR_(100) = 1
subJob_7: DR_(99) = 1
subJob_6: DR_(100) = 1
subJob_5: DR_(102) = 1
subJob_4: DR_(101) = 1
subJob_3: DR_(100) = 1
subJob_2: DR_(101) = 1
subJob_1: DR_(100) = 1
subJob: DR_(102) = 1

Bounds

Binaries
DR_(0) DR_(1) DR_(2) DR_(3) DR_(4) DR_(5) DR_(6) DR_(7) DR_(8) DR_(9) DR_(10) 
DR_(11) DR_(12) DR_(13) DR_(14) DR_(15) DR_(16) DR_(17) DR_(18) DR_(19) DR_(20) 
DR_(21) DR_(22) DR_(23) DR_(24) DR_(25) DR_(26) DR_(27) DR_(28) DR_(29) DR_(30) 
DR_(31) DR_(32) DR_(33) DR_(34) DR_(35) DR_(36) DR_(37) DR_(38) DR_(39) DR_(40) 
DR_(41) DR_(42) DR_(43) DR_(44) DR_(45) DR_(46) DR_(47) DR_(48) DR_(49) DR_(50) 
DR_(51) DR_(52) DR_(53) DR_(54) DR_(55) DR_(56) DR_(57) DR_(58) DR_(59) DR_(60) 
DR_(61) DR_(62) DR_(63) DR_(64) DR_(65) DR_(66) DR_(67) DR_(68) DR_(69) DR_(70) 
DR_(71) DR_(72) DR_(73) DR_(74) DR_(75) DR_(76) DR_(77) DR_(78) DR_(79) DR_(80) 
DR_(81) DR_(82) DR_(83) DR_(84) DR_(85) DR_(86) DR_(87) DR_(88) DR_(89) DR_(90) 
DR_(91) DR_(92) DR_(93) DR_(94) DR_(95) DR_(96) DR_(97) DR_(98) DR_(99) DR_(100) 
DR_(101) DR_(102) DR_(103) DR_(104) DR_(105) DR_(106) DR_(107) DR_(108) DR_(109) 
DR_(110) DR_(111) DR_(112) DR_(113) DR_(114) DR_(115) DR_(116) DR_(117) DR_(118) 
DR_(119) DR_(120) DR_(121) DR_(122) DR_(123) DR_(124) 

End
